# Solution for model KnapSack
# Objective value = 9.9127182825696322e-06
x0 4.0000000808504410e-08
x1 0
x2 0
x3 1
x4 1
x5 0
x6 1
x7 1
x8 1
x9 1
x10 1
x11 0
x12 0
x13 0
x14 1
x15 0
x16 1
x17 1
x18 0
x19 0
